NAME: germany16
TYPE: TSP
DIMENSION: 16
EDGE_WEIGHT_TYPE: EUC_2D
NODE_COORD_SECTION
1 52.517 13.405
2 53.079 8.807
3 51.050 13.737
4 51.227 6.773
5 50.984 11.032
6 53.551 9.993
7 52.375 9.732
8 54.323 10.139
9 52.132 11.627
10 49.993 8.247
11 48.137 11.575
12 52.398 13.065
13 49.237 6.996
14 53.628 11.414
15 48.775 9.182
16 50.082 8.240
EOF


